La  O                                   
   1.0000000000000000     
    11.2732726489501012   -0.0000000000000001    0.0000000000000006
     0.0000000000000018   11.2732726489501012    0.0000000000000006
     0.0000000000000000    0.0000000000000000   11.2732726489501012
   La   O 
    32    48
Direct
  0.0000000000000000  0.2500000000000000  0.4711451176972616
  0.5288548823027313  0.5000000000000000  0.2500000000000000
  0.7508870538583992  0.0288548823027384  0.0000000000000000
  0.9711451176972616  0.5000000000000000  0.7500000000000000
  0.7500000000000000  0.9711451176972616  0.5000000000000000
  0.5000000000000000  0.2500000000000000  0.5288548823027384
  0.5000000000000000  0.2500000000000000  0.0288548823027384
  0.9711451176972616  0.0000000000000000  0.2500000000000000
  0.7500000000000000  0.4711451176972616  0.5000000000000000
  0.5288548823027384  0.0000000000000000  0.7500000000000000
  0.7500000000000000  0.5288548823027384  0.0000000000000000
  0.0000000000000000  0.2500000000000000  0.9711451176972616
  0.7500000000000000  0.2500000000000000  0.2500000000000000
  0.2500000000000000  0.2500000000000000  0.7500000000000000
  0.7500000000000000  0.2500000000000000  0.7500000000000000
  0.7500000000000000  0.7500000000000000  0.7500000000000000
  0.5000000000000000  0.7500000000000000  0.9711451176972616
  0.0288548823027384  0.0000000000000000  0.7500000000000000
  0.2500000000000000  0.5288548823027384  0.5000000000000000
  0.4711451176972616  0.0000000000000000  0.2500000000000000
  0.2500000000000000  0.4711451176972616  0.0000000000000000
  0.0000000000000000  0.7500000000000000  0.0288548823027384
  0.0000000000000000  0.7500000000000000  0.5288548823027384
  0.4711451176972687  0.5000000000000000  0.7500000000000000
  0.2500000000000000  0.9711451176972616  0.0000000000000000
  0.0288548823027384  0.5000000000000000  0.2500000000000000
  0.2500000000000000  0.0288548823027384  0.5000000000000000
  0.5000000000000000  0.7500000000000000  0.4711451176972687
  0.2500000000000000  0.7500000000000000  0.7500000000000000
  0.7500000000000000  0.7500000000000000  0.2500000000000000
  0.2500000000000000  0.7500000000000000  0.2500000000000000
  0.2500000000000000  0.2500000000000000  0.2500000000000000
  0.6475073351938931  0.3785089323575619  0.1112289714906254
  0.8524926648061069  0.3785089323575619  0.8887710285093675
  0.1475073351938931  0.1214910676424381  0.8887710285093746
  0.6214910676424452  0.6112289714906254  0.8524926648061069
  0.6112289714906254  0.8524926648061069  0.6214910676424452
  0.6112289714906254  0.1475073351938931  0.8785089323575548
  0.3785089323575619  0.8887710285093746  0.8524926648061069
  0.3887710285093746  0.6475073351938931  0.6214910676424452
  0.3785089323575619  0.1112289714906254  0.6475073351938931
  0.3887710285093746  0.3524926648061069  0.8785089323575548
  0.6214910676424452  0.3887710285093746  0.6475073351938931
  0.3524926648061069  0.1214910676424381  0.1112289714906254
  0.8524926648061069  0.1214910676424381  0.3887710285093746
  0.6475073351938931  0.1214910676424381  0.6112289714906254
  0.3524926648061069  0.3785089323575619  0.6112289714906254
  0.8785089323575548  0.8887710285093746  0.6475073351938931
  0.1475073351938931  0.3785089323575619  0.3887710285093746
  0.8785089323575548  0.1112289714906254  0.8524926648061069
  0.1112289714906254  0.1475073351938931  0.6214910676424452
  0.1214910676424381  0.3887710285093746  0.8524926648061069
  0.1112289714906254  0.8524926648061069  0.8785089323575548
  0.1214910676424381  0.6112289714906254  0.6475073351938931
  0.8887710285093675  0.3524926648061069  0.6214910676424452
  0.8887710285093746  0.6475073351938931  0.8785089323575548
  0.1475073351938931  0.8785089323575548  0.6112289714906254
  0.3524926648061069  0.8785089323575548  0.3887710285093746
  0.6475073351938931  0.6214910676424452  0.3887710285093746
  0.1214910676424381  0.1112289714906254  0.3524926648061069
  0.1112289714906254  0.3524926648061069  0.1214910676424381
  0.1112289714906254  0.6475073351938931  0.3785089323575619
  0.8785089323575548  0.3887710285093746  0.3524926648061069
  0.8887710285093746  0.1475073351938931  0.1214910676424381
  0.8785089323575548  0.6112289714906254  0.1475073351938931
  0.8887710285093746  0.8524926648061069  0.3785089323575619
  0.1214910676424381  0.8887710285093746  0.1475073351938931
  0.8524926648061069  0.6214910676424452  0.6112289714906254
  0.3524926648061069  0.6214910676424452  0.8887710285093675
  0.1475073351938931  0.6214910676424452  0.1112289714906254
  0.8524926648061069  0.8785089323575548  0.1112289714906254
  0.3785089323575619  0.3887710285093746  0.1475073351938931
  0.6475073351938931  0.8785089323575548  0.8887710285093746
  0.3785089323575619  0.6112289714906254  0.3524926648061069
  0.6112289714906254  0.6475073351938931  0.1214910676424381
  0.6214910676424452  0.8887710285093746  0.3524926648061069
  0.6112289714906254  0.3524926648061069  0.3785089323575619
  0.6214910676424452  0.1112289714906254  0.1475073351938931
  0.3887710285093746  0.8524926648061069  0.1214910676424381
  0.3887710285093746  0.1475073351938931  0.3785089323575619

  0.00000000E+00  0.00000000E+00  0.00000000E+00
  0.00000000E+00  0.00000000E+00  0.00000000E+00
  0.00000000E+00  0.00000000E+00  0.00000000E+00
  0.00000000E+00  0.00000000E+00  0.00000000E+00
  0.00000000E+00  0.00000000E+00  0.00000000E+00
  0.00000000E+00  0.00000000E+00  0.00000000E+00
  0.00000000E+00  0.00000000E+00  0.00000000E+00
  0.00000000E+00  0.00000000E+00  0.00000000E+00
  0.00000000E+00  0.00000000E+00  0.00000000E+00
  0.00000000E+00  0.00000000E+00  0.00000000E+00
  0.00000000E+00  0.00000000E+00  0.00000000E+00
  0.00000000E+00  0.00000000E+00  0.00000000E+00
  0.00000000E+00  0.00000000E+00  0.00000000E+00
  0.00000000E+00  0.00000000E+00  0.00000000E+00
  0.00000000E+00  0.00000000E+00  0.00000000E+00
  0.00000000E+00  0.00000000E+00  0.00000000E+00
  0.00000000E+00  0.00000000E+00  0.00000000E+00
  0.00000000E+00  0.00000000E+00  0.00000000E+00
  0.00000000E+00  0.00000000E+00  0.00000000E+00
  0.00000000E+00  0.00000000E+00  0.00000000E+00
  0.00000000E+00  0.00000000E+00  0.00000000E+00
  0.00000000E+00  0.00000000E+00  0.00000000E+00
  0.00000000E+00  0.00000000E+00  0.00000000E+00
  0.00000000E+00  0.00000000E+00  0.00000000E+00
  0.00000000E+00  0.00000000E+00  0.00000000E+00
  0.00000000E+00  0.00000000E+00  0.00000000E+00
  0.00000000E+00  0.00000000E+00  0.00000000E+00
  0.00000000E+00  0.00000000E+00  0.00000000E+00
  0.00000000E+00  0.00000000E+00  0.00000000E+00
  0.00000000E+00  0.00000000E+00  0.00000000E+00
  0.00000000E+00  0.00000000E+00  0.00000000E+00
  0.00000000E+00  0.00000000E+00  0.00000000E+00
  0.00000000E+00  0.00000000E+00  0.00000000E+00
  0.00000000E+00  0.00000000E+00  0.00000000E+00
  0.00000000E+00  0.00000000E+00  0.00000000E+00
  0.00000000E+00  0.00000000E+00  0.00000000E+00
  0.00000000E+00  0.00000000E+00  0.00000000E+00
  0.00000000E+00  0.00000000E+00  0.00000000E+00
  0.00000000E+00  0.00000000E+00  0.00000000E+00
  0.00000000E+00  0.00000000E+00  0.00000000E+00
  0.00000000E+00  0.00000000E+00  0.00000000E+00
  0.00000000E+00  0.00000000E+00  0.00000000E+00
  0.00000000E+00  0.00000000E+00  0.00000000E+00
  0.00000000E+00  0.00000000E+00  0.00000000E+00
  0.00000000E+00  0.00000000E+00  0.00000000E+00
  0.00000000E+00  0.00000000E+00  0.00000000E+00
  0.00000000E+00  0.00000000E+00  0.00000000E+00
  0.00000000E+00  0.00000000E+00  0.00000000E+00
  0.00000000E+00  0.00000000E+00  0.00000000E+00
  0.00000000E+00  0.00000000E+00  0.00000000E+00
  0.00000000E+00  0.00000000E+00  0.00000000E+00
  0.00000000E+00  0.00000000E+00  0.00000000E+00
  0.00000000E+00  0.00000000E+00  0.00000000E+00
  0.00000000E+00  0.00000000E+00  0.00000000E+00
  0.00000000E+00  0.00000000E+00  0.00000000E+00
  0.00000000E+00  0.00000000E+00  0.00000000E+00
  0.00000000E+00  0.00000000E+00  0.00000000E+00
  0.00000000E+00  0.00000000E+00  0.00000000E+00
  0.00000000E+00  0.00000000E+00  0.00000000E+00
  0.00000000E+00  0.00000000E+00  0.00000000E+00
  0.00000000E+00  0.00000000E+00  0.00000000E+00
  0.00000000E+00  0.00000000E+00  0.00000000E+00
  0.00000000E+00  0.00000000E+00  0.00000000E+00
  0.00000000E+00  0.00000000E+00  0.00000000E+00
  0.00000000E+00  0.00000000E+00  0.00000000E+00
  0.00000000E+00  0.00000000E+00  0.00000000E+00
  0.00000000E+00  0.00000000E+00  0.00000000E+00
  0.00000000E+00  0.00000000E+00  0.00000000E+00
  0.00000000E+00  0.00000000E+00  0.00000000E+00
  0.00000000E+00  0.00000000E+00  0.00000000E+00
  0.00000000E+00  0.00000000E+00  0.00000000E+00
  0.00000000E+00  0.00000000E+00  0.00000000E+00
  0.00000000E+00  0.00000000E+00  0.00000000E+00
  0.00000000E+00  0.00000000E+00  0.00000000E+00
  0.00000000E+00  0.00000000E+00  0.00000000E+00
  0.00000000E+00  0.00000000E+00  0.00000000E+00
  0.00000000E+00  0.00000000E+00  0.00000000E+00
  0.00000000E+00  0.00000000E+00  0.00000000E+00
  0.00000000E+00  0.00000000E+00  0.00000000E+00
  0.00000000E+00  0.00000000E+00  0.00000000E+00
