La  O 
 1.0000000000000000
    11.3081468922862118   -0.0000001265810661   -0.0001128186162643
    -0.0000001222727856   11.3081170467924501    0.0000244643144197
    -0.0001128191828342    0.0000244609312614   11.3082110058616276
 La  O  
  32  48
Cartesian
  0.0007283628596875  2.8273224984965113  5.3452628829993465
  5.9630191493808811  5.6541961708955633  2.8270550773018650
  8.4811901212660459  0.3088296723563016 -0.0000444289069085
 10.9992933813491884  5.6542289348197308  8.4810834656862291
  8.4811934197572896 11.0003519232616167  5.6540293801400887
  5.6538838913039688  2.8272943398575276  5.9629036545998577
  5.6543027174588039  2.8270831285392934  0.3087961678509418
 10.9995394117956362  0.0001557693312005  2.8269319242612512
  8.4812949219274891  5.3451386466546893  5.6540088264565531
  5.9628184267034383 11.3082438014029858  8.4812403289372948
  8.4810311328118804  5.9631719342594920 11.3081294974041757
 11.3081214972365665  2.8270672773420982 10.9992578594507435
  8.4814889985197066  2.8273371627206458  2.8268499876334352
  2.8271568260359592  2.8269596359854137  8.4813846466071414
  8.4811218003601674  2.8272674192740013  8.4811938194835381
  8.4809461541921802  8.4813802002002650  8.4807358289833541
  5.6540829102925585  8.4811040945613296 10.9993223531424693
  0.3088179545156371  0.0000793797770395  8.4811295299947744
  2.8271200709911062  5.9631853625910001  5.6541062684826064
  5.3453478791746845 11.3081630421273420  2.8269766184730565
  2.8270037184009236  5.3452850223102057 11.3081551064515242
 11.3080058888477470  8.4811423986016496  0.3087560714180300
 11.3078645327520597  8.4813562247814662  5.9627321863122544
  5.3452308461543243  5.6541720058039919  8.4811154428486013
  2.8270705503083842 10.9991745152022382  0.0000052251298947
  0.3089794576509865  5.6542008976618492  2.8269582705780136
  2.8272216178921679  0.3087259611483412  5.6541014648940493
  5.6544359095762937  8.4813451976427974  5.3453459425059613
  2.8268910938459921  8.4810759458342204  8.4811180137847391
  8.4812457822205971  8.4813949854395521  2.8273339813461478
  2.8271540321352591  8.4810909062802775  2.8270819308071005
  2.8273053965705368  2.8270278142872702  2.8267918820972975
  7.3214071761516530  4.2641161368234259  1.2377405905309440
  9.6409398602622378  4.2641243697383100 10.0704108256263520
  1.6670457246645780  1.3900642762584763 10.0705049470811687
  7.0440869450974137  6.8920624763093299  9.6409058137499546
  6.8918032841842294  9.6414473666158393  7.0441628100569798
  6.8918869999121490  1.6672082647316855  9.9181068348385253
  4.2638824979423271 10.0703928315895350  9.6410478060285758
  4.4164346523475926  7.3214086905454394  7.0441055000841102
  4.2640495083969627  1.2378252995901129  7.3212197506160193
  4.4163566662264291  3.9870198744334000  9.9181633972831520
  7.0441855398992663  4.4165084804368435  7.3211884873295157
  3.9871545503066339  1.3900556961882615  1.2375644599183175
  9.6416985429807571  1.3907240786454689  4.4162843477879532
  7.3209487043940680  1.3906637150207086  6.8918996335559033
  3.9867459576831514  4.2641547191484541  6.8920339210007597
  9.9177570998475844 10.0709466719701020  7.3208214538095611
  1.6677533187134685  4.2642160438091476  4.4160012672003930
  9.9180633997033496  1.2377759450797654  9.6409751668412440
  1.2380894950578532  1.6670482269124376  7.0442615391053405
  1.3900396181087558  4.4162454713832888  9.6410826575421549
  1.2376409465762299  9.6409812468660352  9.9181138095629180
  1.3899682412681751  6.8919431248934275  7.3212659041094454
 10.0706128036262808  3.9869468552439455  7.0440848252508532
 10.0701776580577942  7.3213545514040463  9.9179613155997099
  1.6669489251889771  9.9180254389908971  6.8918222819189365
  3.9872015840200188  9.9179805149681055  4.4163346555535341
  7.3213817818324953  7.0442420952175437  4.4163380958219154
  1.3904194876966727  1.2377949231185836  3.9869683183216411
  1.2378550902488670  3.9869340108586058  1.3900001583675765
  1.2376644744194780  7.3213937636809696  4.2640912713448511
  9.9184309953569105  4.4164754868907945  3.9868453261389245
 10.0704719067445509  1.6671228078848823  1.3899507349422149
  9.9180536552501746  6.8920438654060261  1.6671569660866121
 10.0704423518819475  9.6414319719452131  4.2639106659739250
  1.3901118716373941 10.0703748381744251  1.6671594174265634
  9.6409161293238732  7.0442871694802704  6.8917745298330040
  3.9868830313093762  7.0441434979191540 10.0703640202498690
  1.6671163305897276  7.0441668480563306  1.2377200020634669
  9.6409618362177518  9.9180929630073180  1.2378371971665028
  4.2641706848015488  4.4163034872284053  1.6670223122326946
  7.3211854948402086  9.9180691731949615 10.0703492823677259
  4.2641423757516153  6.8919532585519079  3.9869116625101024
  6.8919184029112506  7.3213128375195877  1.3901398149317634
  7.0444991972610680 10.0709554484832413  3.9872702583090227
  6.8920565615677400  3.9869449149546372  4.2639823158596029
  7.0442939578392467  1.2378337876133452  1.6671404230158919
  4.4163080669180657  9.6409393051402823  1.3900548288624992
  4.4164336020966832  1.6670459668008997  4.2638922546594422
